NAME : kroC100-R-3-0-a.37953.tour
COMMENT : Length = 37953
COMMENT : Found by LKH-3 [Keld Helsgaun] Tue Jul 30 13:14:56 2024
TYPE : TOUR
DIMENSION : 100
TOUR_SECTION
1
53
27
15
13
79
20
42
65
54
75
22
34
71
86
95
30
89
41
73
69
100
74
60
12
46
37
61
26
78
82
63
11
52
87
97
45
36
10
66
7
32
24
93
4
59
21
23
35
2
62
6
47
67
55
8
17
25
90
88
28
39
56
5
43
94
70
76
91
50
83
72
38
98
58
64
31
80
77
68
3
14
99
19
92
57
33
81
96
84
48
44
51
16
9
29
18
49
40
85
-1
EOF
